p cnf 531 1191
1 0
2 0
3 0
4 0
5 0
6 0
7 0
8 0
9 0
10 0
11 0
12 0
13 0
14 0
15 0
16 0
17 0
18 0
19 0
20 0
21 0
22 0
23 0
24 0
25 0
-26 0
-27 0
-28 0
-29 0
-30 0
-31 0
-32 0
-33 0
-34 0
-35 0
-36 0
-37 0
-38 0
-39 0
-40 0
-41 0
-42 0
-43 0
-44 0
-45 0
-46 0
-47 0
-48 0
-49 0
-50 0
1 -51 0
-1 51 0
2 -52 0
-2 52 0
3 -53 0
-3 53 0
4 -54 0
-4 54 0
5 -55 0
-5 55 0
6 -56 0
-6 56 0
7 -57 0
-7 57 0
8 -58 0
-8 58 0
9 -59 0
-9 59 0
10 -60 0
-10 60 0
11 -61 0
-11 61 0
12 -62 0
-12 62 0
13 -63 0
-13 63 0
14 -64 0
-14 64 0
15 -65 0
-15 65 0
16 -66 0
-16 66 0
17 -67 0
-17 67 0
18 -68 0
-18 68 0
19 -69 0
-19 69 0
20 -70 0
-20 70 0
21 -71 0
-21 71 0
22 -72 0
-22 72 0
23 -73 0
-23 73 0
24 -74 0
-24 74 0
25 -75 0
-25 75 0
76 77 0
78 77 0
-76 -78 -77 0
-26 77 -79 0
26 -77 -79 0
79 -77 -26 0
26 77 79 0
-79 0
80 81 0
82 81 0
-80 -82 -81 0
-76 81 -83 0
76 -81 -83 0
83 -81 -76 0
76 81 83 0
-83 0
80 -84 0
-80 84 0
85 86 0
87 86 0
-85 -87 -86 0
-27 86 -88 0
27 -86 -88 0
88 -86 -27 0
27 86 88 0
-88 0
89 90 0
91 90 0
-89 -91 -90 0
-85 90 -92 0
85 -90 -92 0
92 -90 -85 0
85 90 92 0
-92 0
87 93 0
91 93 0
94 93 0
-94 -87 -91 -93 0
-89 93 -95 0
89 -93 -95 0
95 -93 -89 0
89 93 95 0
-95 0
96 97 0
98 97 0
-96 -98 -97 0
-28 97 -99 0
28 -97 -99 0
99 -97 -28 0
28 97 99 0
-99 0
100 101 0
102 101 0
-100 -102 -101 0
-96 101 -103 0
96 -101 -103 0
103 -101 -96 0
96 101 103 0
-103 0
104 105 0
106 105 0
-104 -106 -105 0
-100 105 -107 0
100 -105 -107 0
107 -105 -100 0
100 105 107 0
-107 0
102 108 0
106 108 0
109 108 0
-102 -106 -109 -108 0
-104 108 -110 0
104 -108 -110 0
110 -108 -104 0
104 108 110 0
-110 0
111 112 0
113 112 0
-111 -113 -112 0
-29 112 -114 0
29 -112 -114 0
114 -112 -29 0
29 112 114 0
-114 0
115 116 0
117 116 0
-115 -117 -116 0
-111 116 -118 0
111 -116 -118 0
118 -116 -111 0
111 116 118 0
-118 0
119 120 0
121 120 0
-119 -121 -120 0
-115 120 -122 0
115 -120 -122 0
122 -120 -115 0
115 120 122 0
-122 0
121 123 0
124 123 0
-121 -124 -123 0
-119 123 -125 0
119 -123 -125 0
125 -123 -119 0
119 123 125 0
-125 0
126 127 0
128 127 0
-126 -128 -127 0
-30 127 -129 0
30 -127 -129 0
129 -127 -30 0
30 127 129 0
-129 0
130 131 0
132 131 0
-130 -132 -131 0
-126 131 -133 0
126 -131 -133 0
133 -131 -126 0
126 131 133 0
-133 0
134 135 0
136 135 0
-134 -136 -135 0
-130 135 -137 0
130 -135 -137 0
137 -135 -130 0
130 135 137 0
-137 0
138 139 0
140 139 0
-138 -140 -139 0
-134 139 -141 0
134 -139 -141 0
141 -139 -134 0
134 139 141 0
-141 0
142 143 0
144 143 0
-142 -144 -143 0
-138 143 -145 0
138 -143 -145 0
145 -143 -138 0
138 143 145 0
-145 0
146 147 0
148 147 0
-146 -148 -147 0
-142 147 -149 0
142 -147 -149 0
149 -147 -142 0
142 147 149 0
-149 0
150 151 0
152 151 0
-150 -152 -151 0
-146 151 -153 0
146 -151 -153 0
153 -151 -146 0
146 151 153 0
-153 0
144 154 0
148 154 0
152 154 0
155 154 0
-156 0
-150 154 -157 0
150 -154 -157 0
157 -154 -150 0
150 154 157 0
-157 0
158 159 0
160 159 0
-158 -160 -159 0
-31 159 -161 0
31 -159 -161 0
161 -159 -31 0
31 159 161 0
-161 0
162 163 0
164 163 0
-162 -164 -163 0
-158 163 -165 0
158 -163 -165 0
165 -163 -158 0
158 163 165 0
-165 0
166 167 0
168 167 0
-166 -168 -167 0
-162 167 -169 0
162 -167 -169 0
169 -167 -162 0
162 167 169 0
-169 0
170 171 0
172 171 0
-170 -172 -171 0
-166 171 -173 0
166 -171 -173 0
173 -171 -166 0
166 171 173 0
-173 0
174 175 0
176 175 0
-174 -176 -175 0
-170 175 -177 0
170 -175 -177 0
177 -175 -170 0
170 175 177 0
-177 0
168 178 0
172 178 0
176 178 0
179 178 0
-180 0
-174 178 -181 0
174 -178 -181 0
181 -178 -174 0
174 178 181 0
-181 0
182 183 0
184 183 0
-182 -184 -183 0
-32 183 -185 0
32 -183 -185 0
185 -183 -32 0
32 183 185 0
-185 0
186 187 0
188 187 0
-186 -188 -187 0
-182 187 -189 0
182 -187 -189 0
189 -187 -182 0
182 187 189 0
-189 0
190 191 0
192 191 0
-190 -192 -191 0
-186 191 -193 0
186 -191 -193 0
193 -191 -186 0
186 191 193 0
-193 0
194 195 0
196 195 0
-194 -196 -195 0
-190 195 -197 0
190 -195 -197 0
197 -195 -190 0
190 195 197 0
-197 0
198 199 0
200 199 0
-198 -200 -199 0
-194 199 -201 0
194 -199 -201 0
201 -199 -194 0
194 199 201 0
-201 0
202 203 0
204 203 0
-202 -204 -203 0
-198 203 -205 0
198 -203 -205 0
205 -203 -198 0
198 203 205 0
-205 0
196 206 0
200 206 0
204 206 0
207 206 0
-208 0
-202 206 -209 0
202 -206 -209 0
209 -206 -202 0
202 206 209 0
-209 0
210 211 0
212 211 0
-210 -212 -211 0
-33 211 -213 0
33 -211 -213 0
213 -211 -33 0
33 211 213 0
-213 0
210 -214 0
-210 214 0
215 216 0
217 216 0
-215 -217 -216 0
-34 216 -218 0
34 -216 -218 0
218 -216 -34 0
34 216 218 0
-218 0
219 220 0
221 220 0
-219 -221 -220 0
-215 220 -222 0
215 -220 -222 0
222 -220 -215 0
215 220 222 0
-222 0
223 224 0
225 224 0
-223 -225 -224 0
-219 224 -226 0
219 -224 -226 0
226 -224 -219 0
219 224 226 0
-226 0
227 228 0
229 228 0
-227 -229 -228 0
-223 228 -230 0
223 -228 -230 0
230 -228 -223 0
223 228 230 0
-230 0
231 232 0
233 232 0
-231 -233 -232 0
-227 232 -234 0
227 -232 -234 0
234 -232 -227 0
227 232 234 0
-234 0
235 236 0
237 236 0
-235 -237 -236 0
-231 236 -238 0
231 -236 -238 0
238 -236 -231 0
231 236 238 0
-238 0
229 239 0
233 239 0
237 239 0
240 239 0
-241 0
-235 239 -242 0
235 -239 -242 0
242 -239 -235 0
235 239 242 0
-242 0
243 244 0
245 244 0
-243 -245 -244 0
-35 244 -246 0
35 -244 -246 0
246 -244 -35 0
35 244 246 0
-246 0
247 248 0
249 248 0
-247 -249 -248 0
-243 248 -250 0
243 -248 -250 0
250 -248 -243 0
243 248 250 0
-250 0
251 252 0
253 252 0
-251 -253 -252 0
-247 252 -254 0
247 -252 -254 0
254 -252 -247 0
247 252 254 0
-254 0
251 -255 0
-251 255 0
36 -256 0
-36 256 0
257 258 0
259 258 0
-257 -259 -258 0
-37 258 -260 0
37 -258 -260 0
260 -258 -37 0
37 258 260 0
-260 0
261 262 0
263 262 0
-261 -263 -262 0
-257 262 -264 0
257 -262 -264 0
264 -262 -257 0
257 262 264 0
-264 0
265 266 0
267 266 0
-265 -267 -266 0
-261 266 -268 0
261 -266 -268 0
268 -266 -261 0
261 266 268 0
-268 0
269 270 0
271 270 0
-269 -271 -270 0
-265 270 -272 0
265 -270 -272 0
272 -270 -265 0
265 270 272 0
-272 0
273 274 0
275 274 0
-273 -275 -274 0
-269 274 -276 0
269 -274 -276 0
276 -274 -269 0
269 274 276 0
-276 0
267 277 0
271 277 0
275 277 0
278 277 0
-279 0
-273 277 -280 0
273 -277 -280 0
280 -277 -273 0
273 277 280 0
-280 0
281 282 0
283 282 0
-281 -283 -282 0
-38 282 -284 0
38 -282 -284 0
284 -282 -38 0
38 282 284 0
-284 0
285 286 0
287 286 0
-285 -287 -286 0
-281 286 -288 0
281 -286 -288 0
288 -286 -281 0
281 286 288 0
-288 0
289 290 0
291 290 0
-289 -291 -290 0
-285 290 -292 0
285 -290 -292 0
292 -290 -285 0
285 290 292 0
-292 0
293 294 0
295 294 0
-293 -295 -294 0
-289 294 -296 0
289 -294 -296 0
296 -294 -289 0
289 294 296 0
-296 0
297 298 0
299 298 0
-297 -299 -298 0
-293 298 -300 0
293 -298 -300 0
300 -298 -293 0
293 298 300 0
-300 0
291 301 0
295 301 0
299 301 0
302 301 0
-303 0
-297 301 -304 0
297 -301 -304 0
304 -301 -297 0
297 301 304 0
-304 0
305 306 0
307 306 0
-305 -307 -306 0
-39 306 -308 0
39 -306 -308 0
308 -306 -39 0
39 306 308 0
-308 0
309 310 0
311 310 0
-309 -311 -310 0
-305 310 -312 0
305 -310 -312 0
312 -310 -305 0
305 310 312 0
-312 0
313 314 0
315 314 0
-313 -315 -314 0
-309 314 -316 0
309 -314 -316 0
316 -314 -309 0
309 314 316 0
-316 0
317 318 0
319 318 0
-317 -319 -318 0
-313 318 -320 0
313 -318 -320 0
320 -318 -313 0
313 318 320 0
-320 0
319 321 0
322 321 0
-319 -322 -321 0
-317 321 -323 0
317 -321 -323 0
323 -321 -317 0
317 321 323 0
-323 0
324 325 0
326 325 0
-324 -326 -325 0
-40 325 -327 0
40 -325 -327 0
327 -325 -40 0
40 325 327 0
-327 0
328 329 0
330 329 0
-328 -330 -329 0
-324 329 -331 0
324 -329 -331 0
331 -329 -324 0
324 329 331 0
-331 0
332 333 0
334 333 0
-332 -334 -333 0
-328 333 -335 0
328 -333 -335 0
335 -333 -328 0
328 333 335 0
-335 0
336 337 0
338 337 0
-336 -338 -337 0
-332 337 -339 0
332 -337 -339 0
339 -337 -332 0
332 337 339 0
-339 0
330 340 0
334 340 0
338 340 0
341 340 0
-342 0
-336 340 -343 0
336 -340 -343 0
343 -340 -336 0
336 340 343 0
-343 0
344 345 0
346 345 0
-344 -346 -345 0
-41 345 -347 0
41 -345 -347 0
347 -345 -41 0
41 345 347 0
-347 0
348 349 0
350 349 0
-348 -350 -349 0
-344 349 -351 0
344 -349 -351 0
351 -349 -344 0
344 349 351 0
-351 0
352 353 0
354 353 0
-352 -354 -353 0
-348 353 -355 0
348 -353 -355 0
355 -353 -348 0
348 353 355 0
-355 0
356 357 0
358 357 0
-356 -358 -357 0
-352 357 -359 0
352 -357 -359 0
359 -357 -352 0
352 357 359 0
-359 0
360 361 0
362 361 0
-360 -362 -361 0
-356 361 -363 0
356 -361 -363 0
363 -361 -356 0
356 361 363 0
-363 0
364 365 0
366 365 0
-364 -366 -365 0
-360 365 -367 0
360 -365 -367 0
367 -365 -360 0
360 365 367 0
-367 0
358 368 0
362 368 0
366 368 0
369 368 0
-370 0
-364 368 -371 0
364 -368 -371 0
371 -368 -364 0
364 368 371 0
-371 0
372 373 0
374 373 0
-372 -374 -373 0
-42 373 -375 0
42 -373 -375 0
375 -373 -42 0
42 373 375 0
-375 0
376 377 0
378 377 0
-376 -378 -377 0
-372 377 -379 0
372 -377 -379 0
379 -377 -372 0
372 377 379 0
-379 0
376 -380 0
-376 380 0
381 382 0
383 382 0
-381 -383 -382 0
-43 382 -384 0
43 -382 -384 0
384 -382 -43 0
43 382 384 0
-384 0
385 386 0
387 386 0
-385 -387 -386 0
-381 386 -388 0
381 -386 -388 0
388 -386 -381 0
381 386 388 0
-388 0
389 390 0
391 390 0
-389 -391 -390 0
-385 390 -392 0
385 -390 -392 0
392 -390 -385 0
385 390 392 0
-392 0
393 394 0
395 394 0
-393 -395 -394 0
-389 394 -396 0
389 -394 -396 0
396 -394 -389 0
389 394 396 0
-396 0
397 398 0
399 398 0
-397 -399 -398 0
-393 398 -400 0
393 -398 -400 0
400 -398 -393 0
393 398 400 0
-400 0
401 402 0
403 402 0
-401 -403 -402 0
-397 402 -404 0
397 -402 -404 0
404 -402 -397 0
397 402 404 0
-404 0
399 405 0
403 405 0
406 405 0
-399 -403 -406 -405 0
-401 405 -407 0
401 -405 -407 0
407 -405 -401 0
401 405 407 0
-407 0
408 409 0
410 409 0
-408 -410 -409 0
-44 409 -411 0
44 -409 -411 0
411 -409 -44 0
44 409 411 0
-411 0
412 413 0
414 413 0
-412 -414 -413 0
-408 413 -415 0
408 -413 -415 0
415 -413 -408 0
408 413 415 0
-415 0
416 417 0
418 417 0
-416 -418 -417 0
-412 417 -419 0
412 -417 -419 0
419 -417 -412 0
412 417 419 0
-419 0
420 421 0
422 421 0
-420 -422 -421 0
-416 421 -423 0
416 -421 -423 0
423 -421 -416 0
416 421 423 0
-423 0
424 425 0
426 425 0
-424 -426 -425 0
-420 425 -427 0
420 -425 -427 0
427 -425 -420 0
420 425 427 0
-427 0
422 428 0
426 428 0
429 428 0
-422 -426 -429 -428 0
-424 428 -430 0
424 -428 -430 0
430 -428 -424 0
424 428 430 0
-430 0
431 432 0
433 432 0
-431 -433 -432 0
-45 432 -434 0
45 -432 -434 0
434 -432 -45 0
45 432 434 0
-434 0
431 -435 0
-431 435 0
436 437 0
438 437 0
-436 -438 -437 0
-46 437 -439 0
46 -437 -439 0
439 -437 -46 0
46 437 439 0
-439 0
440 441 0
442 441 0
-440 -442 -441 0
-436 441 -443 0
436 -441 -443 0
443 -441 -436 0
436 441 443 0
-443 0
444 445 0
446 445 0
-444 -446 -445 0
-440 445 -447 0
440 -445 -447 0
447 -445 -440 0
440 445 447 0
-447 0
448 449 0
450 449 0
-448 -450 -449 0
-444 449 -451 0
444 -449 -451 0
451 -449 -444 0
444 449 451 0
-451 0
450 452 0
453 452 0
-450 -453 -452 0
-448 452 -454 0
448 -452 -454 0
454 -452 -448 0
448 452 454 0
-454 0
455 456 0
457 456 0
-455 -457 -456 0
-47 456 -458 0
47 -456 -458 0
458 -456 -47 0
47 456 458 0
-458 0
457 459 0
460 459 0
-457 -460 -459 0
-455 459 -461 0
455 -459 -461 0
461 -459 -455 0
455 459 461 0
-461 0
462 463 0
464 463 0
-462 -464 -463 0
-48 463 -465 0
48 -463 -465 0
465 -463 -48 0
48 463 465 0
-465 0
466 467 0
468 467 0
-466 -468 -467 0
-462 467 -469 0
462 -467 -469 0
469 -467 -462 0
462 467 469 0
-469 0
470 471 0
472 471 0
-470 -472 -471 0
-466 471 -473 0
466 -471 -473 0
473 -471 -466 0
466 471 473 0
-473 0
472 474 0
475 474 0
-472 -475 -474 0
-470 474 -476 0
470 -474 -476 0
476 -474 -470 0
470 474 476 0
-476 0
477 478 0
479 478 0
-477 -479 -478 0
-49 478 -480 0
49 -478 -480 0
480 -478 -49 0
49 478 480 0
-480 0
481 482 0
483 482 0
-481 -483 -482 0
-477 482 -484 0
477 -482 -484 0
484 -482 -477 0
477 482 484 0
-484 0
485 486 0
487 486 0
-485 -487 -486 0
-481 486 -488 0
481 -486 -488 0
488 -486 -481 0
481 486 488 0
-488 0
489 490 0
491 490 0
-489 -491 -490 0
-485 490 -492 0
485 -490 -492 0
492 -490 -485 0
485 490 492 0
-492 0
493 494 0
495 494 0
-493 -495 -494 0
-489 494 -496 0
489 -494 -496 0
496 -494 -489 0
489 494 496 0
-496 0
497 498 0
499 498 0
-497 -499 -498 0
-493 498 -500 0
493 -498 -500 0
500 -498 -493 0
493 498 500 0
-500 0
495 501 0
499 501 0
502 501 0
-495 -502 -499 -501 0
-497 501 -503 0
497 -501 -503 0
503 -501 -497 0
497 501 503 0
-503 0
504 505 0
506 505 0
-504 -506 -505 0
-50 505 -507 0
50 -505 -507 0
507 -505 -50 0
50 505 507 0
-507 0
508 509 0
510 509 0
-508 -510 -509 0
-504 509 -511 0
504 -509 -511 0
511 -509 -504 0
504 509 511 0
-511 0
512 513 0
514 513 0
-512 -514 -513 0
-508 513 -515 0
508 -513 -515 0
515 -513 -508 0
508 513 515 0
-515 0
516 517 0
518 517 0
-516 -518 -517 0
-512 517 -519 0
512 -517 -519 0
519 -517 -512 0
512 517 519 0
-519 0
514 520 0
518 520 0
521 520 0
-518 -521 -514 -520 0
-516 520 -522 0
516 -520 -522 0
522 -520 -516 0
516 520 522 0
-522 0
51 -523 0
52 -523 0
53 -523 0
54 -523 0
55 -523 0
56 -523 0
57 -523 0
58 -523 0
59 -523 0
60 -523 0
61 -523 0
62 -523 0
63 -523 0
64 -523 0
65 -523 0
66 -523 0
67 -523 0
68 -523 0
69 -523 0
70 -523 0
71 -523 0
72 -523 0
73 -523 0
74 -523 0
75 -523 0
78 -523 0
-523 -82 0
84 -523 0
87 -523 0
91 -523 0
-523 -94 0
-523 -98 0
-523 -102 0
106 -523 0
109 -523 0
-523 -113 0
-523 -117 0
-523 -121 0
124 -523 0
-523 -128 0
-523 -132 0
-523 -136 0
-523 -140 0
-523 -144 0
-523 -148 0
-523 -152 0
155 -523 0
-523 -160 0
164 -523 0
-523 -168 0
-523 -172 0
176 -523 0
-523 -179 0
-523 -184 0
188 -523 0
-523 -192 0
-523 -196 0
-523 -200 0
204 -523 0
207 -523 0
212 -523 0
-523 -214 0
217 -523 0
-523 -221 0
225 -523 0
-523 -229 0
-523 -233 0
237 -523 0
-523 -240 0
245 -523 0
-523 -249 0
253 -523 0
-523 -255 0
-523 -256 0
-523 -259 0
263 -523 0
-523 -267 0
271 -523 0
275 -523 0
-523 -278 0
-523 -283 0
287 -523 0
-523 -291 0
295 -523 0
299 -523 0
-523 -302 0
-523 -307 0
-523 -311 0
-523 -315 0
-523 -319 0
322 -523 0
326 -523 0
-523 -330 0
334 -523 0
-523 -338 0
-523 -341 0
346 -523 0
350 -523 0
354 -523 0
-523 -358 0
-523 -362 0
366 -523 0
-523 -369 0
374 -523 0
-523 -378 0
380 -523 0
-523 -383 0
-523 -387 0
-523 -391 0
-523 -395 0
-523 -399 0
403 -523 0
406 -523 0
-523 -410 0
-523 -414 0
-523 -418 0
-523 -422 0
426 -523 0
429 -523 0
433 -523 0
-523 -435 0
-523 -438 0
-523 -442 0
-523 -446 0
-523 -450 0
453 -523 0
-523 -457 0
460 -523 0
464 -523 0
-523 -468 0
-523 -472 0
475 -523 0
479 -523 0
483 -523 0
-523 -487 0
491 -523 0
-523 -495 0
499 -523 0
-523 -502 0
-523 -506 0
510 -523 0
514 -523 0
-523 -518 0
-523 -521 0
523 0
-524 0
-525 0
-526 0
-527 0
-528 0
-529 0
-530 0
-531 0
